
n_res = 8;
rcap = [21, 16, 18, 19, 799, 717, 801, 793];
rtype = [1, 1, 1, 1, 2, 2, 2, 2];
n_tasks = 50;
modes =  [{1, 2, 3, 4, 5, 6, 7, 8, 9}, {10, 11, 12, 13, 14, 15, 16, 17, 18}, {19, 20, 21, 22, 23, 24, 25, 26, 27}, {28, 29, 30, 31, 32, 33, 34, 35, 36}, {37, 38, 39, 40, 41, 42, 43, 44, 45}, {46, 47, 48, 49, 50, 51, 52, 53, 54}, {55, 56, 57, 58, 59, 60, 61, 62, 63}, {64, 65, 66, 67, 68, 69, 70, 71, 72}, {73, 74, 75, 76, 77, 78, 79, 80, 81}, {82, 83, 84, 85, 86, 87, 88, 89, 90}, {91, 92, 93, 94, 95, 96, 97, 98, 99}, {100, 101, 102, 103, 104, 105, 106, 107, 108}, {109, 110, 111, 112, 113, 114, 115, 116, 117}, {118, 119, 120, 121, 122, 123, 124, 125, 126}, {127, 128, 129, 130, 131, 132, 133, 134, 135}, {136, 137, 138, 139, 140, 141, 142, 143, 144}, {145, 146, 147, 148, 149, 150, 151, 152, 153}, {154, 155, 156, 157, 158, 159, 160, 161, 162}, {163, 164, 165, 166, 167, 168, 169, 170, 171}, {172, 173, 174, 175, 176, 177, 178, 179, 180}, {181, 182, 183, 184, 185, 186, 187, 188, 189}, {190, 191, 192, 193, 194, 195, 196, 197, 198}, {199, 200, 201, 202, 203, 204, 205, 206, 207}, {208, 209, 210, 211, 212, 213, 214, 215, 216}, {217, 218, 219, 220, 221, 222, 223, 224, 225}, {226, 227, 228, 229, 230, 231, 232, 233, 234}, {235, 236, 237, 238, 239, 240, 241, 242, 243}, {244, 245, 246, 247, 248, 249, 250, 251, 252}, {253, 254, 255, 256, 257, 258, 259, 260, 261}, {262, 263, 264, 265, 266, 267, 268, 269, 270}, {271, 272, 273, 274, 275, 276, 277, 278, 279}, {280, 281, 282, 283, 284, 285, 286, 287, 288}, {289, 290, 291, 292, 293, 294, 295, 296, 297}, {298, 299, 300, 301, 302, 303, 304, 305, 306}, {307, 308, 309, 310, 311, 312, 313, 314, 315}, {316, 317, 318, 319, 320, 321, 322, 323, 324}, {325, 326, 327, 328, 329, 330, 331, 332, 333}, {334, 335, 336, 337, 338, 339, 340, 341, 342}, {343, 344, 345, 346, 347, 348, 349, 350, 351}, {352, 353, 354, 355, 356, 357, 358, 359, 360}, {361, 362, 363, 364, 365, 366, 367, 368, 369}, {370, 371, 372, 373, 374, 375, 376, 377, 378}, {379, 380, 381, 382, 383, 384, 385, 386, 387}, {388, 389, 390, 391, 392, 393, 394, 395, 396}, {397, 398, 399, 400, 401, 402, 403, 404, 405}, {406, 407, 408, 409, 410, 411, 412, 413, 414}, {415, 416, 417, 418, 419, 420, 421, 422, 423}, {424, 425, 426, 427, 428, 429, 430, 431, 432}, {433, 434, 435, 436, 437, 438, 439, 440, 441}, {442, 443, 444, 445, 446, 447, 448, 449, 450}];
succ =  [{10, 9, 8, 7}, {16, 13, 12, 9, 8}, {16, 11, 9, 8}, {16, 13, 12, 9}, {16, 9, 8}, {22, 16, 15, 9}, {23, 17, 16, 14, 13}, {22, 17, 15, 14}, {25, 23, 20, 17, 14}, {25, 22, 19, 12}, {27, 26, 22, 21, 17}, {20, 14}, {28, 27, 26, 25, 22, 21}, {28, 27, 21, 18}, {27, 26, 25, 20}, {29, 28, 26, 21}, {29, 19}, {38, 32, 31, 29, 26}, {38, 28, 24}, {29, 28, 24}, {38, 24}, {32, 31, 29}, {32, 31, 29}, {45, 36, 32, 31, 30}, {36, 32, 31, 30}, {45, 37, 36, 30}, {45, 38, 32, 30}, {45, 31, 30}, {45, 36, 30}, {41, 40, 35, 34, 33}, {41, 40, 37, 35, 34}, {41, 39, 33}, {50, 49, 48, 43, 42}, {47, 43, 39}, {47, 43, 39}, {47, 43, 39}, {49, 48, 44, 42}, {49, 43, 42}, {50, 49, 48, 46}, {48, 47, 44}, {43}, {47, 46}, {44}, {46}, {46}, {}, {}, {}, {}, {}];
n_opt = 450;
dur = [1, 2, 5, 10, 11, 20, 25, 26, 28, 1, 5, 10, 13, 14, 19, 21, 25, 27, 1, 3, 5, 9, 11, 16, 17, 18, 20, 5, 6, 7, 8, 9, 12, 13, 20, 26, 5, 10, 11, 19, 25, 26, 28, 29, 30, 2, 3, 4, 14, 19, 22, 23, 24, 26, 3, 9, 11, 12, 13, 14, 15, 16, 24, 2, 9, 12, 13, 15, 20, 23, 24, 26, 1, 3, 4, 9, 10, 13, 19, 20, 23, 1, 3, 7, 13, 15, 16, 17, 19, 30, 2, 4, 8, 9, 16, 18, 19, 24, 27, 1, 2, 7, 8, 14, 17, 24, 26, 28, 7, 12, 13, 14, 15, 21, 23, 27, 30, 5, 8, 11, 12, 13, 14, 18, 24, 28, 1, 8, 10, 14, 18, 25, 26, 29, 30, 1, 2, 4, 7, 9, 10, 16, 23, 30, 11, 12, 13, 14, 15, 16, 17, 20, 24, 1, 3, 5, 6, 8, 9, 17, 18, 28, 2, 5, 10, 11, 17, 18, 19, 26, 29, 4, 5, 9, 11, 14, 19, 22, 28, 30, 3, 6, 7, 14, 17, 21, 22, 23, 24, 1, 11, 16, 20, 21, 24, 26, 27, 29, 3, 9, 15, 17, 21, 24, 25, 27, 28, 1, 3, 5, 16, 19, 23, 24, 27, 29, 1, 2, 7, 11, 13, 14, 17, 22, 29, 4, 6, 10, 11, 12, 15, 17, 24, 27, 1, 9, 11, 19, 21, 22, 24, 25, 30, 7, 14, 15, 21, 22, 23, 26, 28, 29, 1, 2, 3, 7, 8, 9, 13, 21, 27, 7, 9, 13, 17, 20, 21, 22, 23, 30, 1, 4, 6, 9, 10, 23, 24, 28, 29, 3, 10, 15, 16, 17, 18, 19, 20, 29, 1, 2, 3, 4, 5, 6, 7, 8, 14, 1, 8, 12, 18, 21, 23, 25, 26, 28, 4, 5, 8, 15, 16, 19, 22, 27, 30, 7, 8, 10, 12, 17, 22, 23, 24, 28, 4, 7, 9, 11, 12, 13, 14, 16, 26, 2, 7, 16, 17, 18, 19, 20, 23, 26, 3, 5, 8, 10, 12, 17, 21, 22, 28, 5, 6, 10, 23, 24, 25, 26, 29, 30, 6, 13, 14, 24, 25, 26, 27, 28, 29, 10, 15, 18, 23, 24, 25, 26, 27, 28, 4, 6, 7, 12, 13, 16, 24, 25, 28, 5, 7, 14, 15, 22, 23, 24, 25, 26, 9, 10, 14, 15, 16, 18, 21, 22, 23, 6, 8, 9, 10, 12, 13, 14, 24, 27, 3, 5, 10, 11, 13, 17, 18, 22, 30, 3, 4, 6, 8, 12, 15, 16, 23, 29, 8, 11, 13, 21, 22, 23, 24, 25, 27, 1, 5, 11, 20, 21, 23, 24, 27, 28];
rreq = [|3, 3, 3, 3, 3, 2, 2, 2, 2, 5, 5, 5, 5, 5, 5, 5, 5, 5, 3, 2, 2, 2, 2, 1, 1, 1, 1, 3, 3, 3, 3, 3, 3, 3, 3, 3, 4, 4, 4, 4, 3, 3, 3, 2, 2, 4, 4, 4, 4, 4, 4, 4, 4, 4, 3, 2, 2, 2, 2, 1, 1, 1, 1, 2, 2, 2, 2, 2, 2, 2, 2, 2, 4, 4, 4, 4, 4, 3, 3, 3, 3, 4, 4, 4, 4, 4, 4, 4, 4, 4, 4, 4, 4, 4, 3, 3, 3, 2, 2, 5, 4, 4, 3, 3, 2, 2, 1, 1, 3, 3, 3, 3, 2, 2, 1, 1, 1, 3, 3, 3, 3, 3, 3, 3, 3, 3, 3, 3, 3, 2, 2, 2, 1, 1, 1, 3, 3, 3, 3, 3, 3, 3, 3, 3, 3, 3, 3, 3, 2, 2, 2, 2, 2, 4, 4, 3, 3, 2, 2, 1, 1, 1, 3, 3, 3, 3, 3, 3, 3, 3, 3, 4, 3, 3, 3, 2, 2, 2, 1, 1, 5, 5, 5, 5, 5, 5, 5, 5, 5, 3, 2, 2, 2, 2, 1, 1, 1, 1, 4, 4, 4, 4, 4, 4, 4, 4, 4, 4, 4, 4, 4, 3, 3, 3, 3, 3, 3, 3, 3, 3, 2, 2, 1, 1, 1, 3, 3, 3, 3, 3, 3, 3, 3, 3, 5, 4, 4, 4, 3, 3, 3, 2, 2, 3, 2, 2, 2, 2, 1, 1, 1, 1, 2, 2, 2, 2, 2, 2, 2, 2, 2, 3, 3, 3, 3, 3, 3, 3, 3, 3, 3, 3, 3, 2, 2, 2, 1, 1, 1, 3, 3, 3, 2, 2, 2, 1, 1, 1, 4, 4, 4, 4, 4, 4, 4, 4, 4, 5, 4, 4, 4, 4, 4, 4, 4, 4, 4, 4, 4, 4, 4, 3, 3, 3, 3, 3, 2, 2, 2, 2, 2, 2, 2, 2, 3, 2, 2, 2, 2, 2, 2, 2, 2, 3, 3, 3, 3, 3, 3, 3, 3, 3, 3, 3, 3, 3, 3, 3, 3, 3, 3, 1, 1, 1, 1, 1, 1, 1, 1, 1, 5, 5, 5, 5, 5, 5, 5, 5, 5, 2, 2, 2, 2, 2, 2, 2, 2, 2, 4, 4, 4, 4, 4, 4, 4, 4, 4, 3, 3, 3, 3, 2, 2, 2, 2, 2, 2, 2, 2, 2, 2, 2, 2, 2, 2, 2, 2, 2, 2, 2, 1, 1, 1, 1, 5, 4, 4, 3, 3, 3, 2, 2, 2, 1, 1, 1, 1, 1, 1, 1, 1, 1, 4, 3, 3, 2, 2, 2, 1, 1, 1, 3, 2, 2, 2, 2, 2, 2, 2, 2
 |4, 4, 4, 4, 4, 4, 4, 4, 4, 2, 2, 2, 2, 2, 2, 2, 2, 2, 4, 3, 3, 3, 3, 2, 2, 2, 2, 3, 3, 3, 3, 2, 2, 2, 2, 2, 3, 2, 2, 2, 2, 2, 2, 2, 2, 4, 3, 3, 3, 2, 2, 1, 1, 1, 2, 2, 2, 2, 2, 2, 2, 2, 2, 3, 2, 2, 2, 2, 2, 2, 2, 2, 3, 2, 2, 2, 2, 2, 2, 2, 2, 4, 4, 4, 4, 4, 3, 3, 3, 3, 3, 3, 3, 3, 3, 3, 3, 3, 3, 4, 4, 4, 4, 4, 3, 3, 3, 3, 2, 2, 2, 2, 1, 1, 1, 1, 1, 5, 4, 4, 3, 3, 3, 2, 2, 2, 4, 3, 3, 3, 3, 3, 3, 3, 3, 5, 4, 4, 3, 3, 3, 2, 2, 2, 2, 1, 1, 1, 1, 1, 1, 1, 1, 2, 2, 2, 2, 2, 2, 2, 2, 2, 4, 4, 4, 3, 3, 2, 1, 1, 1, 3, 3, 3, 3, 3, 2, 2, 2, 2, 4, 3, 3, 3, 2, 2, 1, 1, 1, 1, 1, 1, 1, 1, 1, 1, 1, 1, 3, 3, 3, 3, 3, 3, 3, 3, 3, 3, 3, 3, 3, 3, 3, 3, 3, 3, 5, 4, 4, 4, 4, 4, 4, 4, 4, 4, 4, 4, 4, 3, 3, 3, 2, 2, 3, 2, 2, 2, 2, 1, 1, 1, 1, 5, 4, 3, 3, 3, 2, 2, 1, 1, 3, 2, 2, 2, 2, 2, 2, 2, 2, 4, 3, 3, 3, 2, 2, 2, 1, 1, 4, 4, 4, 3, 3, 3, 2, 2, 2, 5, 4, 4, 4, 4, 3, 3, 3, 3, 2, 2, 2, 2, 2, 1, 1, 1, 1, 3, 3, 3, 3, 3, 3, 3, 3, 3, 1, 1, 1, 1, 1, 1, 1, 1, 1, 5, 4, 4, 3, 3, 2, 1, 1, 1, 4, 3, 3, 3, 2, 2, 1, 1, 1, 4, 4, 4, 4, 4, 4, 4, 4, 4, 3, 2, 2, 2, 2, 2, 2, 2, 2, 2, 2, 2, 2, 2, 2, 2, 2, 2, 5, 4, 4, 4, 3, 3, 3, 2, 2, 2, 2, 2, 2, 1, 1, 1, 1, 1, 1, 1, 1, 1, 1, 1, 1, 1, 1, 1, 1, 1, 1, 1, 1, 1, 1, 1, 2, 1, 1, 1, 1, 1, 1, 1, 1, 4, 4, 4, 4, 4, 4, 4, 4, 4, 4, 3, 3, 2, 2, 2, 1, 1, 1, 2, 1, 1, 1, 1, 1, 1, 1, 1, 4, 4, 3, 3, 3, 2, 1, 1, 1, 4, 3, 3, 3, 3, 3, 3, 3, 3
 |5, 4, 4, 4, 4, 4, 4, 4, 4, 4, 4, 3, 3, 3, 2, 2, 1, 1, 3, 3, 3, 2, 2, 2, 2, 1, 1, 5, 5, 5, 5, 5, 5, 5, 5, 5, 2, 2, 2, 2, 2, 2, 2, 2, 2, 4, 3, 3, 3, 3, 2, 2, 2, 2, 3, 3, 3, 3, 3, 3, 3, 3, 3, 5, 5, 5, 5, 5, 5, 5, 5, 5, 2, 1, 1, 1, 1, 1, 1, 1, 1, 3, 3, 3, 3, 3, 3, 3, 3, 3, 5, 4, 4, 4, 4, 3, 3, 3, 3, 1, 1, 1, 1, 1, 1, 1, 1, 1, 4, 4, 4, 4, 4, 4, 4, 4, 4, 4, 3, 3, 3, 2, 2, 2, 2, 2, 2, 2, 2, 2, 2, 2, 2, 2, 2, 2, 2, 2, 2, 2, 2, 2, 2, 2, 4, 3, 3, 3, 3, 2, 2, 2, 2, 4, 3, 3, 3, 3, 2, 2, 2, 2, 4, 4, 3, 3, 2, 2, 2, 1, 1, 1, 1, 1, 1, 1, 1, 1, 1, 1, 4, 3, 3, 3, 2, 2, 2, 2, 2, 4, 3, 3, 2, 2, 2, 1, 1, 1, 4, 3, 3, 3, 3, 3, 3, 3, 3, 3, 3, 3, 3, 3, 2, 2, 2, 2, 1, 1, 1, 1, 1, 1, 1, 1, 1, 2, 2, 2, 2, 2, 2, 2, 2, 2, 4, 3, 3, 3, 3, 2, 2, 2, 2, 5, 4, 4, 4, 3, 3, 3, 2, 2, 2, 2, 2, 2, 2, 1, 1, 1, 1, 4, 4, 4, 4, 4, 4, 4, 4, 4, 4, 4, 4, 4, 3, 3, 3, 3, 3, 3, 3, 3, 2, 2, 2, 1, 1, 1, 4, 4, 4, 4, 4, 4, 4, 4, 4, 2, 2, 2, 2, 2, 2, 2, 2, 2, 4, 4, 4, 4, 3, 3, 3, 3, 3, 3, 3, 3, 3, 3, 3, 3, 3, 3, 3, 3, 3, 3, 3, 3, 3, 3, 3, 5, 4, 4, 4, 4, 4, 4, 4, 4, 5, 4, 3, 3, 2, 2, 2, 1, 1, 4, 4, 4, 4, 4, 4, 4, 4, 4, 4, 4, 4, 3, 2, 2, 1, 1, 1, 1, 1, 1, 1, 1, 1, 1, 1, 1, 4, 4, 4, 3, 3, 3, 3, 2, 2, 5, 4, 4, 4, 4, 4, 4, 4, 4, 4, 4, 4, 4, 4, 4, 4, 4, 4, 2, 2, 2, 2, 2, 2, 2, 2, 2, 5, 4, 4, 3, 3, 3, 3, 2, 2, 4, 3, 3, 3, 3, 2, 2, 2, 2, 4, 4, 4, 4, 4, 4, 4, 4, 4, 5, 4, 4, 3, 3, 3, 2, 2, 2
 |1, 1, 1, 1, 1, 1, 1, 1, 1, 2, 2, 2, 2, 1, 1, 1, 1, 1, 5, 4, 4, 4, 4, 4, 4, 4, 4, 5, 4, 4, 3, 3, 2, 1, 1, 1, 3, 2, 2, 2, 1, 1, 1, 1, 1, 1, 1, 1, 1, 1, 1, 1, 1, 1, 3, 3, 3, 3, 3, 2, 2, 2, 2, 5, 4, 4, 4, 4, 4, 4, 4, 4, 1, 1, 1, 1, 1, 1, 1, 1, 1, 4, 4, 4, 4, 4, 3, 3, 3, 3, 4, 3, 3, 3, 2, 2, 2, 2, 2, 5, 4, 4, 4, 3, 3, 3, 3, 3, 4, 4, 4, 3, 3, 2, 1, 1, 1, 5, 4, 3, 3, 2, 2, 2, 1, 1, 2, 2, 2, 2, 2, 1, 1, 1, 1, 2, 2, 2, 2, 2, 2, 2, 2, 2, 3, 3, 3, 3, 3, 3, 3, 3, 3, 5, 4, 4, 3, 3, 2, 2, 1, 1, 5, 4, 4, 4, 3, 3, 3, 2, 2, 1, 1, 1, 1, 1, 1, 1, 1, 1, 4, 3, 3, 2, 2, 2, 2, 1, 1, 2, 1, 1, 1, 1, 1, 1, 1, 1, 3, 3, 3, 3, 3, 3, 3, 3, 3, 4, 4, 4, 4, 3, 3, 3, 3, 3, 4, 3, 3, 2, 2, 2, 2, 1, 1, 5, 4, 4, 3, 2, 2, 2, 1, 1, 5, 4, 4, 3, 2, 2, 2, 1, 1, 2, 2, 2, 2, 1, 1, 1, 1, 1, 2, 1, 1, 1, 1, 1, 1, 1, 1, 4, 4, 3, 3, 3, 2, 1, 1, 1, 1, 1, 1, 1, 1, 1, 1, 1, 1, 2, 2, 2, 2, 2, 2, 2, 2, 2, 4, 4, 4, 4, 4, 4, 4, 4, 4, 3, 3, 3, 3, 3, 3, 3, 3, 3, 2, 1, 1, 1, 1, 1, 1, 1, 1, 4, 3, 3, 3, 2, 2, 2, 1, 1, 5, 4, 4, 3, 2, 2, 2, 1, 1, 3, 3, 3, 3, 3, 3, 3, 3, 3, 3, 3, 3, 3, 3, 2, 2, 2, 2, 4, 3, 3, 3, 3, 3, 3, 3, 3, 4, 4, 4, 4, 4, 3, 3, 3, 3, 3, 2, 2, 2, 2, 2, 2, 2, 2, 3, 3, 3, 3, 3, 3, 3, 3, 3, 5, 4, 4, 4, 3, 3, 3, 3, 3, 2, 2, 2, 2, 1, 1, 1, 1, 1, 4, 4, 4, 4, 4, 3, 3, 3, 3, 4, 4, 4, 4, 4, 4, 4, 4, 4, 4, 4, 4, 4, 4, 4, 4, 4, 4, 3, 3, 3, 2, 2, 2, 2, 1, 1, 4, 3, 3, 3, 2, 2, 1, 1, 1
 |20, 18, 17, 14, 13, 10, 8, 6, 4, 10, 10, 10, 9, 9, 8, 8, 7, 7, 25, 23, 22, 18, 17, 13, 10, 7, 5, 26, 25, 25, 22, 21, 20, 18, 17, 16, 21, 21, 18, 16, 13, 12, 10, 7, 7, 25, 23, 21, 21, 18, 17, 16, 16, 14, 22, 22, 22, 22, 21, 21, 21, 21, 21, 17, 16, 15, 13, 13, 12, 11, 10, 10, 15, 14, 14, 14, 13, 13, 13, 13, 13, 22, 20, 18, 16, 14, 12, 10, 8, 5, 19, 17, 16, 15, 15, 13, 12, 11, 10, 23, 20, 16, 15, 11, 9, 6, 6, 4, 28, 26, 22, 21, 18, 18, 16, 14, 12, 25, 24, 24, 21, 21, 19, 18, 16, 16, 25, 24, 24, 23, 22, 22, 21, 21, 21, 9, 9, 9, 9, 8, 8, 8, 8, 8, 10, 9, 9, 8, 7, 7, 7, 6, 6, 9, 9, 9, 9, 9, 8, 8, 8, 8, 14, 13, 12, 10, 10, 10, 8, 7, 7, 10, 9, 9, 9, 8, 8, 8, 7, 7, 29, 24, 23, 20, 19, 15, 12, 10, 7, 19, 18, 18, 17, 17, 17, 16, 16, 16, 13, 12, 12, 12, 12, 12, 12, 12, 12, 24, 24, 24, 24, 24, 24, 24, 24, 24, 22, 18, 15, 15, 12, 10, 8, 4, 1, 26, 25, 23, 21, 21, 19, 19, 17, 15, 27, 27, 27, 27, 26, 26, 26, 26, 26, 10, 8, 7, 6, 5, 4, 3, 3, 1, 28, 27, 24, 23, 21, 18, 17, 16, 13, 21, 20, 19, 17, 16, 14, 13, 13, 11, 16, 15, 14, 14, 13, 12, 11, 10, 10, 26, 24, 20, 19, 18, 15, 12, 9, 7, 18, 18, 18, 17, 17, 17, 17, 16, 16, 28, 26, 25, 23, 22, 22, 21, 20, 19, 9, 8, 8, 7, 5, 4, 3, 3, 2, 26, 26, 26, 26, 26, 26, 26, 26, 26, 19, 19, 17, 17, 15, 13, 13, 11, 10, 20, 19, 19, 19, 18, 17, 16, 15, 15, 23, 22, 21, 21, 19, 18, 17, 15, 13, 29, 28, 28, 27, 27, 27, 27, 26, 26, 25, 24, 23, 18, 17, 15, 12, 10, 9, 17, 15, 14, 14, 11, 11, 10, 9, 7, 20, 20, 18, 18, 17, 16, 14, 13, 13, 27, 24, 23, 22, 19, 18, 17, 16, 14, 29, 24, 22, 21, 20, 15, 13, 11, 10, 15, 14, 12, 10, 7, 7, 4, 4, 1, 20, 20, 20, 20, 20, 20, 20, 20, 20, 16, 16, 15, 13, 13, 11, 10, 8, 8, 28, 24, 23, 19, 16, 15, 11, 8, 6, 25, 25, 23, 21, 19, 16, 13, 12, 9
 |24, 24, 23, 22, 21, 19, 19, 17, 16, 15, 14, 13, 13, 11, 10, 9, 9, 8, 14, 14, 12, 12, 10, 8, 8, 5, 4, 22, 18, 18, 14, 11, 9, 8, 6, 4, 19, 18, 18, 17, 17, 16, 15, 15, 15, 9, 9, 9, 9, 9, 9, 9, 9, 9, 28, 26, 26, 24, 22, 20, 19, 19, 17, 24, 22, 18, 16, 12, 9, 8, 4, 1, 23, 20, 18, 16, 15, 10, 10, 6, 5, 30, 26, 23, 23, 21, 19, 17, 14, 13, 2, 2, 2, 2, 2, 2, 2, 2, 2, 21, 18, 17, 13, 13, 11, 6, 4, 1, 13, 12, 11, 11, 10, 10, 9, 9, 8, 18, 17, 16, 15, 15, 14, 14, 13, 13, 6, 4, 4, 4, 3, 3, 2, 1, 1, 9, 8, 8, 7, 7, 6, 6, 5, 5, 14, 13, 13, 13, 12, 11, 11, 11, 10, 26, 26, 26, 26, 26, 26, 26, 26, 26, 28, 26, 23, 21, 19, 17, 17, 14, 13, 25, 21, 19, 16, 14, 9, 6, 6, 1, 26, 22, 18, 18, 13, 12, 8, 5, 3, 23, 21, 19, 17, 16, 15, 14, 12, 9, 11, 9, 9, 8, 6, 5, 4, 3, 3, 10, 9, 9, 8, 7, 7, 6, 6, 6, 18, 16, 16, 14, 11, 10, 10, 8, 6, 17, 17, 15, 14, 14, 13, 12, 10, 9, 24, 21, 21, 18, 18, 17, 16, 13, 12, 20, 19, 19, 19, 19, 19, 19, 19, 19, 30, 26, 26, 23, 22, 21, 19, 18, 17, 12, 11, 11, 11, 10, 10, 9, 9, 9, 25, 24, 24, 23, 23, 23, 22, 22, 22, 20, 19, 18, 18, 15, 15, 13, 11, 11, 18, 15, 14, 12, 11, 10, 8, 5, 4, 18, 16, 12, 10, 9, 6, 5, 2, 2, 28, 27, 27, 25, 24, 23, 23, 22, 20, 15, 14, 14, 14, 14, 14, 14, 14, 14, 18, 17, 16, 15, 13, 12, 11, 11, 9, 25, 24, 20, 17, 14, 11, 10, 7, 4, 28, 27, 26, 25, 24, 24, 23, 22, 22, 24, 22, 18, 18, 14, 11, 9, 6, 2, 19, 17, 17, 16, 15, 15, 14, 14, 13, 21, 19, 18, 18, 17, 16, 15, 14, 13, 20, 18, 17, 17, 16, 15, 14, 12, 12, 29, 26, 25, 22, 19, 16, 16, 12, 10, 19, 18, 16, 15, 12, 11, 11, 8, 8, 9, 8, 8, 7, 7, 7, 6, 6, 5, 3, 2, 2, 2, 2, 2, 2, 2, 2, 26, 22, 19, 16, 13, 10, 7, 6, 3, 26, 25, 24, 24, 23, 21, 20, 20, 19, 14, 13, 12, 11, 11, 10, 10, 8, 8
 |24, 24, 24, 23, 23, 22, 21, 21, 21, 11, 10, 9, 8, 8, 7, 5, 5, 4, 27, 25, 23, 20, 15, 14, 10, 10, 7, 25, 25, 24, 23, 20, 19, 17, 16, 15, 16, 15, 15, 13, 11, 10, 8, 6, 6, 25, 25, 25, 25, 25, 25, 25, 25, 25, 14, 12, 12, 10, 9, 8, 7, 7, 5, 30, 28, 25, 24, 22, 22, 20, 18, 17, 10, 8, 8, 8, 7, 6, 6, 5, 5, 9, 8, 8, 7, 7, 7, 6, 6, 5, 18, 17, 17, 17, 16, 16, 15, 15, 15, 19, 16, 14, 14, 12, 9, 7, 5, 4, 10, 10, 9, 7, 7, 6, 5, 3, 3, 17, 17, 17, 17, 17, 17, 17, 17, 17, 27, 27, 26, 23, 23, 20, 19, 17, 16, 29, 28, 27, 24, 23, 22, 20, 20, 19, 14, 13, 13, 12, 11, 9, 9, 7, 6, 21, 21, 19, 19, 17, 16, 14, 14, 12, 20, 18, 18, 17, 17, 16, 16, 15, 15, 26, 21, 20, 16, 15, 12, 8, 6, 3, 14, 13, 12, 12, 11, 10, 10, 10, 9, 28, 27, 25, 24, 23, 21, 21, 19, 18, 25, 22, 20, 17, 16, 15, 13, 11, 8, 24, 23, 23, 23, 23, 22, 22, 22, 22, 28, 26, 25, 25, 24, 22, 22, 21, 19, 26, 23, 21, 17, 14, 12, 11, 7, 7, 24, 21, 21, 18, 16, 15, 13, 11, 10, 1, 1, 1, 1, 1, 1, 1, 1, 1, 16, 14, 12, 11, 9, 8, 5, 5, 3, 22, 17, 16, 14, 11, 10, 6, 5, 1, 27, 26, 26, 26, 26, 25, 25, 25, 25, 21, 18, 17, 16, 14, 12, 9, 7, 6, 3, 3, 3, 3, 3, 2, 2, 2, 2, 27, 26, 25, 25, 24, 22, 22, 20, 20, 15, 14, 13, 13, 13, 12, 12, 11, 11, 28, 26, 26, 25, 25, 24, 24, 23, 23, 26, 23, 20, 20, 16, 12, 10, 7, 4, 26, 23, 20, 16, 15, 11, 8, 5, 3, 23, 22, 21, 19, 19, 17, 16, 15, 13, 22, 20, 18, 17, 14, 11, 10, 8, 5, 25, 24, 23, 23, 22, 21, 21, 21, 20, 30, 29, 28, 27, 26, 26, 26, 25, 24, 28, 27, 26, 23, 23, 22, 21, 19, 17, 12, 12, 10, 8, 6, 5, 4, 3, 1, 7, 6, 6, 6, 6, 5, 5, 5, 5, 22, 19, 18, 17, 15, 15, 13, 11, 10, 21, 21, 20, 20, 19, 19, 18, 18, 18, 25, 20, 20, 17, 13, 11, 7, 7, 5, 16, 15, 14, 14, 14, 13, 13, 12, 12, 29, 28, 28, 28, 27, 27, 27, 27, 27
 |20, 19, 18, 13, 13, 10, 9, 4, 2, 21, 17, 16, 15, 13, 9, 8, 7, 4, 19, 17, 17, 16, 14, 11, 11, 10, 7, 17, 16, 15, 14, 12, 11, 10, 9, 7, 13, 12, 11, 10, 9, 9, 8, 6, 5, 16, 14, 13, 12, 12, 11, 10, 9, 9, 26, 23, 21, 16, 15, 13, 7, 5, 2, 25, 20, 19, 17, 14, 11, 9, 8, 5, 22, 22, 22, 22, 22, 22, 21, 22, 22, 14, 13, 13, 12, 12, 12, 11, 11, 10, 12, 12, 12, 12, 12, 12, 12, 12, 12, 24, 24, 24, 24, 23, 23, 22, 22, 22, 17, 17, 17, 17, 17, 17, 17, 17, 17, 17, 16, 15, 15, 15, 14, 13, 13, 12, 16, 14, 14, 13, 12, 10, 8, 8, 7, 27, 27, 27, 27, 26, 26, 26, 26, 26, 17, 16, 15, 16, 15, 15, 14, 14, 14, 18, 17, 16, 14, 14, 13, 13, 12, 11, 25, 25, 23, 22, 22, 20, 19, 19, 17, 16, 14, 13, 13, 12, 12, 11, 9, 9, 25, 24, 24, 23, 22, 22, 21, 21, 21, 14, 14, 12, 11, 9, 9, 7, 6, 5, 26, 26, 23, 22, 21, 19, 18, 16, 15, 22, 20, 19, 18, 18, 18, 17, 16, 15, 26, 25, 24, 24, 24, 23, 23, 22, 22, 14, 14, 14, 14, 13, 13, 13, 12, 12, 16, 12, 11, 9, 9, 7, 5, 5, 2, 11, 11, 10, 8, 7, 6, 5, 5, 4, 27, 26, 25, 24, 23, 22, 21, 19, 19, 16, 14, 13, 13, 11, 11, 10, 8, 8, 21, 19, 19, 19, 17, 17, 16, 16, 15, 30, 25, 22, 22, 18, 15, 14, 10, 8, 29, 24, 22, 19, 17, 14, 12, 10, 6, 28, 23, 22, 19, 17, 13, 13, 9, 5, 29, 27, 27, 26, 26, 26, 25, 24, 24, 19, 18, 17, 18, 17, 17, 17, 17, 16, 10, 10, 9, 7, 6, 6, 5, 4, 3, 25, 24, 23, 21, 21, 19, 19, 17, 17, 9, 9, 9, 8, 8, 7, 6, 6, 6, 26, 25, 23, 23, 22, 22, 21, 20, 19, 27, 23, 22, 19, 17, 15, 14, 11, 10, 13, 13, 12, 11, 11, 10, 10, 9, 8, 17, 15, 14, 13, 10, 8, 6, 3, 3, 26, 25, 25, 24, 24, 23, 23, 22, 22, 26, 25, 23, 23, 21, 20, 19, 18, 18, 26, 26, 26, 25, 25, 25, 25, 24, 24, 24, 22, 22, 20, 20, 19, 18, 16, 15, 14, 13, 12, 11, 10, 10, 9, 9, 8, 16, 15, 13, 11, 9, 8, 5, 5, 2, 11, 11, 10, 8, 8, 8, 7, 6, 5|];